p cnf 873 2288
c ind 851 857 855 859 852 842 853 870 856 817 0
c ind 834 813 814 835 863 869 848 849 854 871 0
c ind 845 850 846 847 864 839 843 867 866 825 0
c ind 807 822 844 802 806 816 830 804 861 862 0
c ind 803 841 805 836 840 868 829 838 858 860 0
c ind 821 865 824 808 833 812 818 815 826 827 0
c ind 828 831 832 810 823 820 809 811 837 819 0
c ind 1 0
c ret 530 662 663 664 665 666 667 668 531 669 0
c ret 670 671 672 673 674 675 676 574 677 575 0
c ret 678 679 532 680 681 682 576 683 684 685 0
c ret 686 533 687 688 689 690 691 692 693 694 0
c ret 577 695 578 696 697 698 534 699 700 701 0
c ret 702 703 704 705 706 707 708 535 536 579 0
c ret 537 709 710 711 712 713 714 715 716 580 0
c ret 717 718 719 720 721 538 581 722 723 724 0
c ret 582 725 726 727 539 728 729 730 731 732 0
c ret 522 540 733 734 735 736 541 737 738 739 0
c ret 740 583 584 741 742 542 585 743 744 745 0
c ret 746 747 748 749 543 750 751 752 544 753 0
c ret 754 755 756 757 586 758 759 760 761 762 0
c ret 763 764 765 545 766 767 768 769 587 770 0
c ret 771 772 773 774 775 776 777 778 588 546 0
c ret 779 780 781 782 783 784 785 786 547 787 0
c ret 788 589 789 590 790 791 792 793 794 795 0
c ret 796 523 548 797 798 799 800 801 549 591 0
c ret 592 593 594 550 595 596 597 598 551 552 0
c ret 599 600 553 601 602 603 554 604 605 524 0
c ret 555 606 607 608 609 610 611 612 613 556 0
c ret 614 557 558 559 615 560 525 616 617 561 0
c ret 562 618 563 619 564 565 620 621 622 566 0
c ret 526 567 623 624 625 626 627 628 629 630 0
c ret 631 527 632 633 634 635 636 637 638 639 0
c ret 640 641 642 643 528 568 644 569 645 646 0
c ret 647 570 571 648 649 650 651 529 652 653 0
c ret 654 655 656 572 657 573 658 659 660 661 0
2 -61 -200 0
2 -3 -188 -200 0
-2 200 0
-2 61 188 0
-2 3 61 0
3 -4 -59 60 683 0
-3 -683 0
-3 -60 0
-3 59 0
-3 4 0
4 -5 -7 0
4 -7 -684 0
-4 7 0
-4 5 684 0
5 -6 534 536 0
-5 6 0
-5 -536 0
-5 -534 0
6 538 553 0
-6 -538 0
-6 -553 0
7 8 29 -38 0
-7 38 0
-7 -29 0
-7 -8 0
8 9 10 0
8 10 -534 0
8 10 -536 0
-8 -10 0
-8 -9 534 536 0
9 538 557 0
-9 -538 0
-9 -557 0
10 -24 -534 0
10 11 534 0
-10 -11 534 0
-10 24 -534 0
11 -22 -536 0
11 12 536 0
-11 -12 536 0
-11 22 -536 0
12 -15 -538 0
12 13 538 0
-12 -13 538 0
-12 15 -538 0
13 -556 -577 0
13 -14 -577 0
-13 577 0
-13 14 556 0
14 -549 -550 -578 0
-14 549 0
-14 550 0
-14 578 0
13 15 16 0
15 -16 606 0
-13 -15 16 0
-15 -16 -606 0
16 17 557 0
-16 -557 0
-16 -17 0
17 18 -607 0
-17 607 0
-17 -18 0
18 19 610 0
18 19 611 0
-18 -19 0
-18 -610 -611 0
19 20 -21 557 607 0
-19 21 0
-19 -20 0
-19 -557 0
-19 -607 0
20 558 567 -614 0
-20 614 0
-20 -567 0
-20 -558 0
21 -608 610 611 0
-21 608 0
-21 -611 0
-21 -610 0
22 -23 -631 0
12 22 23 0
-12 -22 23 0
-22 -23 631 0
-9 17 23 0
9 -23 0
-17 -23 0
11 24 25 0
24 -25 657 0
-11 -24 25 0
-24 -25 -657 0
25 -26 -28 0
25 -26 -27 607 0
-25 26 0
-25 28 -607 0
-25 27 28 0
-9 26 536 0
-26 -536 0
9 -26 0
27 536 538 0
-27 -536 0
-27 -538 0
-18 28 607 0
-18 28 557 0
18 -28 0
-28 -557 -607 0
29 -30 -31 0
29 -31 32 -548 0
-29 31 0
-29 30 -32 0
-29 30 548 0
30 -583 584 -585 0
-30 583 0
-30 -584 0
-30 585 0
31 534 536 538 0
-31 -534 0
-31 -538 0
-31 -536 0
32 -534 -662 0
32 33 534 0
-32 -534 662 0
-32 -33 534 0
33 -536 639 0
33 -34 536 0
-33 -536 -639 0
-33 34 536 0
34 -538 615 0
34 -35 538 0
-34 -538 -615 0
-34 35 538 0
35 36 37 0
35 36 -570 -571 0
-35 -36 0
-35 -37 570 0
-35 -37 571 0
36 -546 -568 0
36 -546 -569 0
-36 546 0
-36 568 569 0
37 547 -568 -569 0
-37 569 0
-37 568 0
-37 -547 0
38 -46 55 0
38 39 55 0
-38 -55 0
-38 -39 46 0
39 -40 673 0
39 665 673 0
-39 -673 0
-39 40 -665 0
40 -41 534 0
40 -45 -534 0
-40 45 -534 0
-40 41 534 0
41 -42 536 0
41 -44 -536 0
-41 44 -536 0
-41 42 536 0
42 -43 538 0
-42 -538 0
-42 43 0
43 -575 594 0
43 575 593 0
-43 575 -593 0
-43 -575 -594 0
44 617 641 0
-44 -617 0
-44 -641 0
45 642 664 0
-45 -642 0
-45 -664 0
46 -47 -54 0
46 -54 665 0
-46 54 0
-46 47 -665 0
47 -534 665 0
47 -48 534 0
-47 -534 -665 0
-47 48 534 0
48 -536 642 0
48 -49 536 0
-48 -536 -642 0
-48 49 536 0
49 50 538 0
49 50 617 0
-49 -50 0
-49 -538 -617 0
50 51 538 0
-50 -538 0
-50 -51 0
51 -53 564 0
51 -53 -575 0
51 52 -53 0
-51 53 0
-51 -52 -564 575 0
52 594 596 597 -598 0
-52 598 0
-52 -597 0
-52 -594 0
-52 -596 0
53 596 597 0
53 575 594 0
53 594 597 0
53 575 596 0
-53 -594 -596 0
-53 -575 -597 0
-45 54 672 0
-41 54 534 672 0
-54 -672 0
45 -54 -534 0
41 45 -54 0
55 57 674 0
55 56 58 674 0
-55 -674 0
-55 -56 -57 0
-55 -57 -58 0
56 574 575 0
56 562 -575 0
-56 -574 575 0
-56 -562 -575 0
-56 57 -665 0
57 665 676 0
-57 665 -676 0
56 -57 -665 0
-45 58 675 0
-58 -675 0
45 -58 0
-5 -7 59 0
-7 59 -677 0
7 -59 0
5 -59 677 0
60 -677 684 0
-60 677 0
-60 -684 0
61 -176 528 0
61 62 528 705 0
-61 -528 0
-61 176 -705 0
-61 -62 176 0
62 139 -706 0
62 63 107 139 0
-62 -139 0
-62 -63 706 0
-62 -107 706 0
63 -106 707 708 0
63 -64 707 -708 0
-63 -707 0
-63 64 -708 0
-63 106 708 0
64 -65 -537 619 623 0
64 -65 537 -619 623 0
-64 65 0
-64 537 619 0
-64 -623 0
-64 -537 -619 0
65 -66 74 -75 -97 0
-65 97 0
-65 66 0
-65 75 0
-65 -74 0
66 67 -72 -538 0
66 67 -68 -72 0
-66 72 0
-66 -67 0
-66 68 538 0
9 12 67 0
-9 -67 0
-12 -67 0
68 -69 -70 0
68 -69 71 0
-68 69 0
-68 70 -71 0
30 35 69 0
30 69 548 0
-30 -69 0
-35 -69 -548 0
-51 70 592 0
-70 -592 0
51 -70 0
-43 71 599 0
-71 -599 0
43 -71 0
72 73 -620 0
-6 72 73 0
-72 -73 0
6 -72 620 0
56 73 600 0
-73 -600 0
-56 -73 0
15 74 -538 0
74 -538 -553 603 0
-74 538 0
-15 -74 553 0
-15 -74 -603 0
-69 75 -76 88 -89 0
-75 89 0
69 -75 0
-75 76 0
-75 -88 0
76 -77 86 553 0
76 -77 -84 86 0
-76 77 0
-76 -86 0
-76 84 -553 0
77 -79 -81 -556 0
77 78 -79 -81 0
-77 81 0
-77 79 0
-77 -78 556 0
78 549 -557 0
-78 -549 0
-78 557 0
79 80 547 0
79 80 -546 0
79 80 548 0
-79 -80 0
-79 546 -547 -548 0
80 549 558 0
80 -549 550 0
-80 -549 -550 0
-80 549 -558 0
81 -82 83 -560 0
78 81 -82 83 0
-81 82 0
-81 -83 0
-78 -81 560 0
82 -539 -566 -586 587 0
-82 586 0
-82 -587 0
-82 539 0
-82 566 0
83 -553 588 0
83 -579 588 0
-83 -588 0
-83 553 579 0
84 85 -552 -572 0
84 85 551 -572 0
-84 572 0
-84 -85 0
-84 -551 552 0
85 554 -555 0
85 554 573 0
-85 -554 0
-85 555 -573 0
86 -87 -541 0
86 -541 543 -545 0
-86 541 0
-86 87 -543 0
-86 87 545 0
87 -540 542 -543 544 0
-87 543 0
-87 -544 0
-87 540 0
-87 -542 0
-13 88 -557 0
-88 557 0
13 -88 0
-56 89 -91 -94 0
89 90 -91 -94 0
-89 94 0
-89 91 0
56 -89 -90 0
90 561 -576 0
-90 -561 0
-90 576 0
91 92 93 553 0
91 92 93 -579 0
-91 -93 0
-91 -92 0
-91 -553 579 0
92 558 567 0
-92 -558 0
-92 -567 0
93 564 -565 0
-93 -564 0
-93 565 0
94 95 96 0
94 95 549 0
94 95 556 0
-94 -95 0
-94 -96 -549 -556 0
95 561 -566 0
95 561 -562 -563 0
-95 -561 0
-95 562 566 0
-95 563 566 0
96 -557 -558 559 0
-96 557 0
-96 558 0
-96 -559 0
97 -98 -102 564 0
97 -98 101 -102 0
-97 102 0
-97 98 0
-97 -101 -564 0
-68 98 -600 0
-68 98 -99 566 0
68 -98 0
-98 -566 600 0
-98 99 600 0
99 -100 601 0
-99 -601 0
-99 100 0
100 595 596 0
100 -575 596 0
100 563 575 -596 0
-100 -563 -596 0
-100 -575 -596 0
-100 575 -595 596 0
-43 -70 101 0
-70 -100 101 0
70 -101 0
43 100 -101 0
71 88 102 -103 0
88 102 -103 564 0
-102 103 0
-88 -102 0
-71 -102 -564 0
56 103 104 -105 -600 0
-103 105 0
-103 -104 0
-103 600 0
-56 -103 0
104 -553 603 0
104 -603 620 0
104 -538 620 0
-104 553 -620 0
-104 -603 -620 0
-104 538 553 603 0
105 -591 -618 619 0
-105 591 0
-105 618 0
-105 -619 0
-75 106 591 0
-106 -591 0
75 -106 0
107 -108 648 -707 0
-107 108 0
-107 707 0
-107 -648 0
-65 108 -109 119 -132 0
-108 132 0
65 -108 0
-108 109 0
-108 -119 0
109 110 111 112 -116 0
-109 116 0
-109 -112 0
-109 -110 0
-109 -111 0
-11 110 -536 0
9 -11 110 0
11 -110 0
-9 -110 536 0
-27 -30 111 0
-27 -33 111 -548 0
27 -111 0
30 33 -111 0
30 -111 548 0
112 -113 536 0
-112 -536 0
-112 113 0
113 -114 115 0
-113 114 0
-113 -115 0
-42 114 625 0
114 617 625 0
-114 -625 0
42 -114 -617 0
-42 50 115 624 0
-42 115 617 624 0
42 -115 0
-115 -624 0
-50 -115 -617 0
116 -117 -645 0
116 -117 -118 0
-116 117 0
-116 118 645 0
117 -626 0
-56 117 -617 0
-56 117 627 0
56 -117 626 0
-117 617 626 -627 0
-6 118 536 0
-118 -536 0
6 -118 0
-22 119 -120 0
119 126 -536 0
-22 119 -536 0
119 -120 126 0
22 -119 -126 0
-119 120 536 0
120 121 125 0
-12 120 121 -124 0
-120 -121 0
12 -120 -125 0
-120 124 -125 0
121 538 632 638 0
121 122 -538 632 -638 0
-121 -538 638 0
-121 -122 -638 0
-121 -632 0
-121 538 -638 0
122 -123 -538 -635 0
122 -123 538 -636 0
-122 123 0
-122 -538 635 0
-122 538 636 0
123 585 -633 0
123 -633 -634 0
-123 633 0
-123 -585 634 0
-34 -115 124 637 0
-34 124 626 637 0
34 -124 0
-124 -637 0
115 -124 -626 0
-122 125 -538 -632 0
-125 538 0
-125 632 0
122 -125 0
-117 126 -127 -129 -131 0
-126 131 0
117 -126 0
-126 129 0
-126 127 0
113 127 -626 0
113 127 -128 0
-113 -127 0
-127 128 626 0
-56 128 -617 0
128 617 627 0
-128 617 -627 0
56 -128 -617 0
129 130 -538 0
-69 129 130 0
-129 -130 0
69 -129 538 0
6 130 628 0
-130 -628 0
-6 -130 0
30 130 131 -536 538 0
-130 -131 0
-30 -131 0
-131 536 0
-131 -538 0
-66 111 -127 132 -133 0
-132 133 0
66 -132 0
127 -132 0
-111 -132 0
-71 -129 133 -134 0
115 -129 133 -134 0
-133 134 0
129 -133 0
71 -115 -133 0
128 130 134 -135 -137 0
-128 -134 0
-134 137 0
-134 135 0
-130 -134 0
135 -136 -645 0
135 -136 536 628 0
-135 136 0
-135 -628 645 0
-135 -536 645 0
136 537 -619 0
136 -537 619 0
-136 -537 -619 0
-136 537 619 0
-56 137 -138 0
137 -138 -626 0
-137 138 0
56 -137 626 0
138 -535 -623 -643 644 0
-138 643 0
-138 -644 0
-138 535 0
-138 623 0
139 -140 -165 671 -706 0
-139 -671 0
-139 165 0
-139 140 0
-139 706 0
140 -150 -161 0
140 141 -161 534 0
-140 161 0
-140 -141 150 0
-140 150 -534 0
141 142 149 0
11 141 142 -146 0
-141 -142 0
-11 -141 -149 0
-141 146 -149 0
-27 142 658 661 0
27 142 143 658 -661 0
-27 -142 -661 0
27 -142 -143 0
-142 -658 0
27 -142 661 0
-123 143 -144 0
123 -143 0
-143 144 0
144 -536 -659 0
144 -145 536 0
-144 145 536 0
-144 -536 659 0
145 -538 -635 0
145 538 -636 0
-145 538 636 0
-145 -538 635 0
-33 146 -147 660 0
-33 146 651 660 0
33 -146 0
-146 -660 0
-146 147 -651 0
147 148 642 649 0
-48 147 148 649 0
-147 -148 0
-147 -649 0
48 -147 -642 0
41 44 148 0
-44 -148 0
-41 -148 0
27 -143 149 -658 0
-149 658 0
-27 -149 0
143 -149 0
-24 150 -151 -157 -158 0
-150 158 0
24 -150 0
-150 157 0
-150 151 0
151 -152 156 0
-151 152 0
-151 -156 0
152 153 155 0
-147 152 153 0
-152 -153 0
147 -152 -155 0
153 154 651 0
-153 -651 0
-153 -154 0
-56 154 -642 0
154 642 653 0
-154 642 -653 0
56 -154 -642 0
-41 155 650 0
155 642 650 0
-155 -650 0
41 -155 -642 0
118 156 654 0
-156 -654 0
-118 -156 0
111 156 157 0
-111 -157 0
-156 -157 0
-27 30 158 -159 -534 0
-158 159 0
-158 534 0
27 -158 0
-30 -158 0
159 -651 0
-56 -154 159 0
-154 159 -160 0
154 -159 651 0
56 -159 160 651 0
-44 160 652 0
-160 -652 0
44 -160 0
8 29 -108 161 -162 0
-161 162 0
-29 -161 0
108 -161 0
-8 -161 0
162 -163 -668 0
-5 162 -163 0
-162 163 0
5 -162 668 0
-147 -159 163 0
-159 163 164 0
159 -163 0
147 -163 -164 0
-155 164 534 0
-164 -534 0
155 -164 0
8 -109 110 165 -166 0
109 -165 0
-8 -165 0
-110 -165 0
-165 166 0
29 -151 166 -167 -175 0
-166 175 0
151 -166 0
-166 167 0
-29 -166 0
147 -163 167 -169 0
-163 167 -168 -169 0
-167 169 0
163 -167 0
-147 -167 168 0
-114 168 536 0
-168 -536 0
114 -168 0
169 -170 -173 -651 0
-128 169 -170 -173 0
-169 173 0
-169 170 0
128 -169 651 0
154 170 -172 -668 0
154 170 -171 -172 0
-170 172 0
-154 -170 0
-170 171 668 0
171 534 654 0
-171 -534 0
-171 -654 0
172 -533 -648 -666 667 0
-172 666 0
-172 -667 0
-172 533 0
-172 648 0
173 174 -534 0
156 173 174 0
-173 -174 0
-156 -173 534 0
56 160 174 651 0
-174 -651 0
-160 -174 0
-56 -174 0
-152 -157 175 0
152 -175 0
157 -175 0
-3 176 -177 687 -705 0
-176 -687 0
-176 177 0
3 -176 0
-176 705 0
-59 177 178 -179 0
-59 177 -179 -186 0
59 -177 0
-177 179 0
-177 -178 186 0
-123 -144 178 534 0
-123 178 -534 -680 0
123 -178 0
-178 -534 680 0
144 -178 534 0
-38 -140 -165 179 -180 0
-179 180 0
140 -179 0
38 -179 0
165 -179 0
46 180 181 -182 0
-164 180 181 -182 0
-180 182 0
-180 -181 0
-46 164 -180 0
178 181 -532 0
-181 532 0
-178 -181 0
57 182 -183 -674 0
57 -154 182 -183 0
-182 183 0
-57 -182 0
154 -182 674 0
183 184 -185 -531 683 0
183 184 -185 531 -683 0
-183 185 0
-183 531 683 0
-183 -184 0
-183 -531 -683 0
-27 184 534 0
-184 -534 0
27 -184 0
185 -671 -677 -682 0
-185 671 0
-185 677 0
-185 682 0
186 187 -532 0
10 186 -532 0
-186 532 0
-10 -186 -187 0
32 -46 187 681 0
32 187 674 681 0
-32 -187 0
-187 -681 0
46 -187 -674 0
-4 -177 188 189 -193 0
-188 193 0
4 -188 0
177 -188 0
-188 -189 0
-178 189 530 0
-10 -178 189 -190 0
178 -189 0
-189 190 -530 0
10 -189 -530 0
32 190 -191 698 0
32 190 692 698 0
-32 -190 0
-190 -698 0
-190 191 -692 0
191 192 688 690 0
-47 191 192 688 0
-191 -688 0
-191 -192 0
47 -191 -690 0
40 192 -665 0
40 192 -689 0
-40 -192 0
-192 665 689 0
191 193 -194 199 0
-39 -191 193 -194 0
-193 194 0
39 -191 -193 0
191 -193 -199 0
29 194 -195 530 0
29 -178 194 -195 0
-194 195 0
-29 -194 0
178 -194 -530 0
31 195 -196 -197 -198 0
-31 -195 0
-195 198 0
-195 197 0
-195 196 0
196 -528 690 -694 0
56 196 -528 -690 0
-196 528 0
-56 -196 -690 0
-196 690 694 0
197 -699 700 -701 704 0
-197 701 0
-197 -704 0
-197 699 0
-197 -700 0
198 -529 -687 -692 -695 0
-198 695 0
-198 529 0
-198 692 0
-198 687 0
-40 199 691 0
199 690 691 0
-199 -691 0
40 -199 -690 0
200 201 266 -383 -519 0
-200 -201 0
-200 519 0
-200 383 0
-200 -266 0
201 209 -523 0
201 -209 -213 0
201 -202 209 0
201 -209 523 0
-201 -209 213 -523 0
-201 202 209 523 0
202 -203 -777 0
202 203 777 0
-202 -203 777 0
-202 203 -777 0
203 -204 525 0
-203 -525 0
-203 204 0
204 205 527 0
-204 -527 0
-204 -205 0
31 205 207 0
205 -207 -208 0
205 -206 -207 0
-31 -205 207 0
-205 206 -207 208 0
27 206 -707 0
-206 707 0
-27 -206 0
207 528 705 706 0
-207 -528 0
-207 -706 0
-207 -705 0
208 -538 -708 0
-208 538 0
-208 708 0
203 209 -210 -212 0
-209 212 0
-209 210 0
-203 -209 0
210 -525 -775 0
210 -211 525 0
-210 211 525 0
-210 -525 775 0
211 527 -729 0
211 -527 -754 0
-211 -527 754 0
-211 527 729 0
212 -634 -713 0
212 -713 716 0
-212 713 0
-212 634 -716 0
213 214 -259 769 0
213 214 -235 -259 0
-213 259 0
-213 -214 0
-213 235 -769 0
214 215 234 0
-214 -215 0
-214 -234 0
215 -216 525 0
215 -228 -525 0
-215 228 -525 0
-215 216 525 0
216 -217 -527 0
216 527 722 0
-216 527 -722 0
-216 217 -527 0
217 218 722 0
217 -218 725 0
-217 -218 -725 0
-217 218 -722 0
218 -219 -224 0
218 -224 726 0
-218 224 0
-218 219 -726 0
207 219 -220 0
-207 219 -222 0
-207 219 -221 0
207 -219 220 0
-207 -219 221 222 0
27 -28 220 0
-27 220 534 607 0
-28 220 -534 0
27 28 -220 0
28 -220 -534 0
-27 -220 534 -607 0
208 221 607 707 0
-28 -208 221 707 0
-221 -707 0
208 -221 -607 0
28 -208 -221 0
222 -223 -707 0
-222 707 0
-222 223 0
-27 223 607 0
27 -28 223 0
-27 -223 -607 0
27 28 -223 0
224 225 -226 0
224 724 727 0
224 -226 724 0
224 225 727 0
-224 -225 -724 0
-224 226 -727 0
205 225 -609 0
-225 609 0
-205 -225 0
-184 226 557 0
226 -227 557 0
-226 -557 0
184 -226 227 0
-27 -207 208 227 0
-207 208 227 707 0
207 -227 0
-208 -227 0
27 -227 -707 0
-216 228 229 0
228 -229 752 0
-228 -229 -752 0
216 -228 229 0
229 -230 -231 0
229 -231 726 0
-229 231 0
-229 230 -726 0
-219 230 527 0
-230 -527 0
219 -230 0
231 724 727 0
231 -232 -233 0
231 -233 724 0
231 -232 727 0
-231 232 -724 0
-231 233 -727 0
232 527 609 0
-205 232 527 0
-232 -527 0
205 -232 -609 0
233 -527 727 0
-226 233 527 0
-233 -527 -727 0
226 -233 527 0
234 717 718 731 0
-234 -717 0
-234 -731 0
-234 -718 0
235 245 760 767 0
235 -236 245 767 0
-235 -245 0
-235 -767 0
-235 236 -760 0
236 -240 525 0
236 -525 760 0
236 -237 525 0
-236 -525 -760 0
-236 237 240 525 0
-47 237 238 527 0
-207 237 238 527 0
-237 -527 0
-237 -238 0
47 207 -237 0
48 -207 238 -707 0
-207 238 -239 707 0
207 -238 0
-238 239 707 0
-48 -238 -707 0
-208 239 -617 0
51 208 239 0
-51 208 -239 0
-208 -239 617 0
240 241 -527 0
-240 527 0
-240 -241 0
241 -528 -736 0
241 -244 528 0
241 -242 528 0
-241 -528 736 0
-241 242 244 528 0
242 -665 705 -706 0
242 243 705 706 0
-242 -705 0
-242 -243 706 0
-242 665 -706 0
243 642 -707 0
243 617 707 -708 0
-243 -642 -707 0
-243 -617 707 0
-243 707 708 0
244 -690 -705 0
-244 690 0
-244 705 0
245 246 247 0
-245 -246 0
-245 -247 0
241 246 759 0
-246 -759 0
-241 -246 0
247 -248 525 0
-247 -525 0
-247 248 0
248 252 -527 0
248 -249 252 0
-248 -252 0
-248 249 527 0
-40 249 250 527 0
-207 249 250 527 0
-249 -527 0
-249 -250 0
40 207 -249 0
41 -207 250 251 0
-207 250 251 707 0
207 -250 0
-250 -251 0
-41 -250 -707 0
-43 208 251 707 0
-251 -707 0
43 -251 0
-208 -251 0
249 252 -253 0
-249 -252 0
-252 253 0
253 254 -690 0
253 254 -735 0
253 254 528 0
-253 -254 0
-253 -528 690 735 0
254 -256 528 705 0
254 -255 528 -705 0
-254 -528 0
-254 255 -705 0
-254 256 705 0
255 665 689 0
-255 -665 0
-255 -689 0
-45 256 -706 0
256 -258 706 0
256 -257 706 0
45 -256 -706 0
-256 257 258 706 0
-100 257 707 708 0
100 -257 0
-257 -708 0
-257 -707 0
-44 258 -707 0
-258 707 0
44 -258 0
259 260 776 0
-259 -776 0
-259 -260 0
260 -525 -757 0
260 -261 525 0
-260 261 525 0
-260 -525 757 0
261 262 -733 0
261 262 527 0
-261 -262 0
-261 -527 733 0
262 263 527 0
-262 -527 0
-262 -263 0
-207 263 -264 0
-32 207 263 0
-207 -263 264 0
32 207 -263 0
33 264 -707 0
264 -265 707 0
-33 -264 -707 0
-264 265 707 0
-208 265 -615 0
35 208 265 0
-35 208 -265 0
-208 -265 615 0
215 266 -267 -269 -380 0
-215 266 267 -269 -380 0
-266 380 0
215 -266 267 0
-266 269 0
-215 -266 -267 0
267 -818 -839 0
267 -268 -839 0
-267 839 0
-267 268 818 0
268 -811 -812 -840 0
-268 811 0
-268 812 0
-268 840 0
269 -270 -272 -378 826 0
269 270 -272 -378 -826 0
-269 378 0
-269 270 826 0
-269 272 0
-269 -270 -826 0
270 271 787 0
270 786 787 0
-270 -787 0
-270 -271 -786 0
247 271 525 0
246 247 271 0
-247 -271 0
-246 -271 -525 0
271 272 273 -274 -374 0
-271 272 -273 -274 -374 0
-272 374 0
-271 -272 273 0
-272 274 0
271 -272 -273 0
273 837 -857 0
273 -837 -858 0
-273 -837 858 0
-273 837 857 0
274 -275 -355 -362 855 0
274 -275 355 -362 -855 0
-274 362 0
-274 -355 -855 0
-274 275 0
-274 355 855 0
275 -276 -288 -297 -354 0
-275 354 0
-275 276 0
-275 297 0
-275 288 0
276 -278 -285 -850 0
276 277 -278 -285 0
-276 285 0
-276 278 0
-276 -277 850 0
277 -525 -724 0
-225 277 525 527 0
277 -527 -724 0
-277 -527 724 0
225 -277 525 527 0
-277 -525 724 0
278 -279 280 -281 815 0
278 279 -280 -281 815 0
278 279 -280 281 -815 0
278 -279 280 281 -815 0
-278 -281 -815 0
-278 281 815 0
-278 -279 -280 0
-278 279 280 0
-28 279 801 0
-279 -801 0
28 -279 0
280 -865 -871 0
280 865 -870 871 0
-280 870 871 0
-280 865 -871 0
-280 -865 871 0
281 -282 -283 0
-281 282 0
-281 283 0
282 525 527 0
-282 -525 0
-282 -527 0
-207 283 -284 0
-5 207 283 0
-207 -283 284 0
5 207 -283 0
-118 284 -707 0
208 284 553 707 0
118 -284 -707 0
-284 -553 707 0
-208 -284 707 0
285 286 -287 -832 0
285 -286 -287 832 0
285 -286 -819 832 0
285 286 -819 -832 0
-285 -286 -832 0
-285 286 832 0
-285 287 819 0
-203 286 570 0
-286 -570 0
203 -286 0
287 -527 727 0
-226 287 525 527 0
287 -525 727 0
-287 -525 -727 0
226 -287 525 527 0
-287 -527 -727 0
288 -294 810 0
288 -289 291 -294 0
-288 294 0
-288 289 -810 0
-288 -291 -810 0
-282 289 -290 0
282 -289 0
-289 290 0
205 290 -548 0
-290 548 0
-205 -290 0
291 292 293 0
291 292 -832 -833 0
-291 -292 0
-291 -293 832 0
-291 -293 833 0
292 -808 -830 0
292 -808 -831 0
-292 808 0
-292 830 831 0
293 809 -830 -831 0
-293 831 0
-293 830 0
-293 -809 0
294 295 -845 0
294 -296 -852 0
294 -845 -852 0
294 295 -296 0
-294 -295 852 0
-294 296 845 0
-203 295 -796 0
-295 796 0
203 -295 0
282 296 714 0
205 -282 296 583 0
282 -296 -714 0
-205 -282 -296 0
-282 -296 -583 0
297 -298 -339 -810 0
289 297 -298 -339 0
-297 339 0
-297 298 0
-289 -297 810 0
-203 298 -299 -307 -336 0
-298 336 0
203 -298 0
-298 307 0
-298 299 0
267 299 -300 304 0
299 -300 304 819 0
-299 300 0
-299 -304 0
-267 -299 -819 0
300 -301 303 0
300 -302 828 0
300 -301 828 0
300 -302 303 0
-300 -303 -828 0
-300 301 302 0
301 525 527 723 0
-301 -525 0
-301 -723 0
-301 -527 0
302 -822 -856 0
-268 302 -856 0
-302 856 0
268 -302 822 0
-56 303 -786 0
303 786 790 0
-303 786 -790 0
56 -303 -786 0
304 305 -306 0
304 -305 306 0
-304 -305 -306 0
-304 305 306 0
305 786 799 0
-305 -786 0
-305 -799 0
306 -837 860 0
306 860 869 0
306 825 837 -860 0
-306 -825 -860 0
-306 837 860 -869 0
-306 -837 -860 0
307 -308 -316 -327 -331 0
-307 331 0
-307 308 0
-307 327 0
-307 316 0
-56 308 -310 -313 0
308 309 -310 -313 0
-308 313 0
-308 310 0
56 -308 -309 0
309 836 837 0
309 824 -837 0
-309 -836 837 0
-309 -824 -837 0
310 311 312 716 847 0
310 311 312 -716 -847 0
-310 -311 0
-310 -716 847 0
-310 -312 0
-310 716 -847 0
311 713 -848 0
-311 -713 0
-311 848 0
312 614 -868 0
-312 -614 0
-312 868 0
313 314 -838 0
313 -315 846 0
313 314 -315 0
313 -838 846 0
-313 -314 -846 0
-313 315 838 0
-282 314 715 0
-314 -715 0
282 -314 0
315 760 785 789 0
-315 -760 0
-315 -789 0
-315 -785 0
316 -317 -320 -321 -322 0
-316 322 0
-316 317 0
-316 321 0
-316 320 0
317 318 319 794 849 0
317 318 319 -794 -849 0
-317 -318 0
-317 -794 849 0
-317 -319 0
-317 794 -849 0
318 566 -828 0
-318 -566 0
-318 828 0
319 820 829 0
-319 -820 0
-319 -829 0
320 -714 -719 724 -727 0
-320 727 0
-320 714 0
-320 719 0
-320 -724 0
321 -823 827 0
321 -826 828 0
321 -823 -826 0
321 827 828 0
-321 823 -828 0
-321 826 -827 0
322 -323 -324 -325 -326 0
-322 326 0
-322 323 0
-322 325 0
-322 324 0
323 566 823 0
323 -788 -828 0
323 566 -788 0
323 823 -828 0
-323 -566 828 0
-323 788 -823 0
324 -791 -820 0
324 -811 841 0
324 -791 -811 0
324 -820 841 0
-324 791 -841 0
-324 811 820 0
325 614 811 0
325 -812 -868 0
325 811 -868 0
325 614 -812 0
-325 -811 812 0
-325 -614 868 0
326 713 788 0
326 -823 -848 0
326 788 -848 0
326 713 -823 0
-326 -788 823 0
-326 -713 848 0
-309 327 329 0
56 327 328 329 0
-327 -329 0
-56 309 -327 0
309 -327 -328 0
328 823 -838 0
-328 -823 0
-328 838 0
329 -330 -819 -820 821 0
-329 330 0
-329 819 0
-329 820 0
-329 -821 0
330 -811 -818 0
-330 811 0
-330 818 0
331 -332 333 815 0
331 -332 333 -335 0
-331 332 0
-331 -333 0
-331 335 -815 0
315 332 -846 0
-314 332 838 0
332 838 -846 0
-314 315 332 0
-315 -332 -838 0
314 -332 846 0
333 334 -815 0
333 334 -791 841 0
-333 -334 0
-333 815 -841 0
-333 791 815 0
334 -816 -834 -841 0
334 -834 -835 -841 0
-334 841 0
-334 834 0
-334 816 835 0
335 -814 817 0
335 813 -816 0
335 -814 -816 0
335 813 817 0
-335 816 -817 0
-335 -813 814 0
210 336 337 338 853 0
-210 336 337 338 -853 0
-336 -337 0
210 -336 -853 0
-336 -338 0
-210 -336 853 0
303 337 828 0
-337 -828 0
-303 -337 0
-301 -302 338 0
301 -338 0
302 -338 0
339 340 344 -346 -726 0
339 -340 344 -346 726 0
-339 346 0
-339 340 726 0
-339 -344 0
-339 -340 -726 0
340 341 -343 0
-319 340 -343 -868 0
-340 343 0
319 -340 -341 0
-340 -341 868 0
341 -342 819 862 865 0
-341 342 0
-341 -865 0
-341 -819 0
-341 -862 0
342 -863 864 0
-342 863 0
-342 -864 0
343 862 864 0
343 819 865 0
343 862 865 0
343 819 864 0
-343 -819 -862 0
-343 -864 -865 0
344 -345 -803 0
344 -803 805 -807 0
-344 803 0
-344 345 -805 0
-344 345 807 0
345 -802 804 -805 806 0
-345 805 0
-345 -806 0
-345 802 0
-345 -804 0
346 -347 -349 634 854 0
346 -347 -349 -634 -854 0
-346 349 0
-346 -634 854 0
-346 347 0
-346 634 -854 0
347 348 809 0
347 348 -808 0
347 348 810 0
-347 -348 0
-347 808 -809 -810 0
348 -845 846 -847 0
-348 845 0
-348 -846 0
-348 847 0
349 -350 -351 352 353 0
-349 351 0
-349 -353 0
-349 350 0
-349 -352 0
350 -717 -718 -720 738 0
-350 720 0
-350 -738 0
-350 717 0
-350 718 0
351 -731 798 -800 -828 0
-351 828 0
-351 731 0
-351 800 0
-351 -798 0
352 811 -819 822 0
352 811 818 -819 0
-352 -811 0
-352 819 0
-352 -818 -822 0
353 823 -824 -825 0
-353 825 0
-353 824 0
-353 -823 0
354 845 852 0
-295 296 354 0
296 354 852 0
-295 354 845 0
-296 -354 -845 0
295 -354 -852 0
282 355 716 0
-282 355 356 360 0
-282 -355 -356 0
282 -355 -716 0
-282 -355 -360 0
356 -358 -797 0
-207 356 -357 -797 0
-356 797 0
207 -356 358 0
-356 357 358 0
357 707 708 0
-357 -707 0
-357 -708 0
358 -359 536 0
-207 358 -359 707 0
-358 359 0
207 -358 -536 0
-358 -536 -707 0
-207 359 538 0
359 534 538 0
-359 -538 0
207 -359 -534 0
-208 360 -585 0
184 360 361 -585 0
-360 585 0
-184 208 -360 0
208 -360 -361 0
-27 -207 361 0
-207 361 707 0
207 -361 0
27 -361 -707 0
362 -363 364 369 0
362 -363 -364 -369 0
-362 363 0
-362 -364 369 0
-362 364 -369 0
363 819 850 0
-277 287 363 0
287 363 850 0
-277 363 819 0
-287 -363 -819 0
277 -363 -850 0
364 -366 831 0
364 365 -366 833 0
-364 366 0
-364 -365 -831 0
-364 -831 -833 0
365 809 -843 0
-365 -809 0
-365 843 0
366 367 368 832 0
366 -367 809 832 0
-366 -832 0
-366 367 -368 0
-366 -367 -809 0
367 -810 -844 0
-367 810 0
-367 844 0
368 -833 -843 0
-368 833 0
-368 843 0
205 -286 369 370 -371 0
286 -369 0
-369 -370 0
-205 -369 0
-369 371 0
370 -569 -571 0
370 547 -569 -581 0
-370 569 0
-370 -547 571 0
-370 571 581 0
371 372 373 570 0
371 -372 547 570 0
-371 -570 0
-371 372 -373 0
-371 -372 -547 0
372 -548 -582 0
-372 548 0
-372 582 0
373 -571 -581 0
-373 571 0
-373 581 0
-236 374 -375 0
236 374 375 0
236 -374 -375 0
-236 -374 375 0
375 -377 826 0
375 -377 -837 0
375 376 -377 0
-375 377 0
-375 -376 -826 837 0
376 858 -859 860 861 0
-376 859 0
-376 -861 0
-376 -858 0
-376 -860 0
377 860 861 0
377 837 858 0
377 858 861 0
377 837 860 0
-377 -858 -860 0
-377 -837 -861 0
378 -379 -862 0
378 379 862 0
-378 -379 862 0
-378 379 -862 0
379 -525 -726 0
230 379 -726 0
230 379 525 527 0
-379 -525 726 0
-230 -379 525 0
-379 -527 726 0
-260 291 380 -381 827 0
260 -291 380 -381 827 0
260 -291 380 381 -827 0
-260 291 380 381 -827 0
-380 -381 -827 0
-380 381 827 0
-260 -291 -380 0
260 291 -380 0
381 382 784 786 0
-236 381 382 784 0
-381 -784 0
-381 -382 0
236 -381 -786 0
-271 382 -785 0
-271 382 -760 0
271 -382 0
-382 760 785 0
383 -402 -407 0
-228 383 -384 -407 0
-383 407 0
228 -383 402 0
-383 384 402 0
384 -385 -392 397 -399 0
-384 399 0
-384 385 0
-384 392 0
-384 -397 0
385 -386 -391 0
385 -386 390 0
-385 386 0
-385 -390 391 0
386 387 -746 0
386 387 -388 389 0
-386 -387 0
-386 -389 746 0
-386 388 746 0
387 719 720 0
-387 -719 0
-387 -720 0
-56 -241 388 0
241 388 748 0
241 -388 -748 0
56 -241 -388 0
56 389 -747 0
56 -253 389 0
-56 -389 0
253 -389 747 0
241 390 745 0
-248 390 745 0
-390 -745 0
-241 248 -390 0
-237 252 391 744 0
241 252 391 744 0
-391 -744 0
-252 -391 0
237 -241 -391 0
392 393 394 0
392 393 -527 0
-392 -393 0
-392 -394 527 0
393 717 -718 0
-393 -717 0
-393 718 0
394 395 715 -716 0
394 395 -396 -715 0
-394 -395 0
-394 396 -715 0
-394 715 716 0
205 395 583 0
-395 -583 0
-205 -395 0
396 634 -713 714 0
-396 -634 0
-396 713 0
-396 -714 0
397 398 749 0
-397 -749 0
-397 -398 0
-283 398 527 0
-398 -527 0
283 -398 0
-204 399 -400 401 -525 0
-399 400 0
-399 -401 0
-399 525 0
204 -399 0
387 400 -717 -718 0
387 400 718 -719 0
-387 -400 0
-400 717 -718 0
-400 718 719 0
401 718 -727 0
-401 -718 0
-401 727 0
402 403 -406 525 0
402 -403 -404 525 0
-402 -525 0
-402 -403 404 0
-402 403 406 0
204 -211 -212 403 0
212 -403 0
211 -403 0
-204 -403 0
404 405 -753 0
216 234 404 -753 0
-404 753 0
-216 -404 -405 0
-234 -404 -405 0
261 -391 405 755 0
261 405 746 755 0
-261 -405 0
-405 -755 0
391 -405 -746 0
204 406 753 -756 0
-204 406 753 756 0
-406 -753 0
-204 -406 -756 0
204 -406 756 0
407 408 -409 0
-287 407 -409 0
-215 407 -409 0
-407 409 0
215 287 -407 -408 0
408 -718 -719 724 0
-408 718 0
-408 719 0
-408 -724 0
-233 409 410 -462 0
409 410 -460 -462 0
-409 462 0
-409 -410 0
233 -409 460 0
410 437 -527 0
410 -411 437 0
410 -436 437 0
-410 -437 0
-410 411 436 527 0
411 -412 -728 0
411 435 -728 0
205 411 -728 0
-411 728 0
-205 -411 412 -435 0
263 412 -413 -434 0
263 412 429 -434 0
-263 -412 0
-412 434 0
-412 413 -429 0
-191 413 -528 0
413 -414 528 0
-413 414 528 0
191 -413 -528 0
-46 414 -705 0
414 -421 705 0
414 -415 705 0
46 -414 -705 0
-414 415 421 705 0
415 420 534 -706 0
415 -416 420 -706 0
-415 706 0
-415 -420 0
-415 416 -534 0
-45 416 417 0
-160 416 417 665 0
-416 -417 0
45 -416 -665 0
45 160 -416 0
417 -418 -663 0
-417 663 0
-417 418 0
-48 418 419 0
418 419 665 0
-418 -419 0
48 -418 -665 0
41 45 419 0
-41 -419 0
-45 -419 0
147 418 420 0
147 420 534 0
-147 -420 0
-418 -420 -534 0
421 -422 706 0
421 426 -428 706 0
-421 -706 0
-421 422 428 0
-421 422 -426 0
422 423 565 707 0
422 423 707 -708 0
-422 -423 0
-422 -707 0
-422 -565 708 0
423 424 -538 -708 0
101 423 424 -708 0
-423 708 0
-423 -424 0
-101 -423 538 0
-43 -99 424 -425 0
-99 -101 424 -425 0
-424 425 0
99 -424 0
43 101 -424 0
43 425 617 0
425 -538 616 617 0
-425 -617 0
-43 -425 538 0
-43 -425 -616 0
44 426 -536 0
426 427 -536 -640 0
-426 536 0
-44 -426 640 0
-44 -426 -427 0
49 427 -642 0
-427 642 0
-49 -427 0
-115 428 -707 0
427 428 -536 -707 0
-428 707 0
115 -427 -428 0
115 -428 536 0
429 -528 -692 0
429 -430 528 0
-429 430 528 0
-429 -528 692 0
430 -674 -705 0
430 -431 705 0
-430 674 -705 0
-430 431 705 0
431 -651 -706 0
431 -432 706 0
-431 651 -706 0
-431 432 706 0
432 -626 -707 0
432 -433 707 0
-432 626 -707 0
-432 433 707 0
433 -600 -708 0
433 -561 708 0
-433 561 708 0
-433 600 -708 0
-234 434 730 0
434 722 730 0
-434 -730 0
234 -434 -722 0
-212 435 -729 0
-435 729 0
212 -435 0
-435 436 728 -732 0
-205 436 728 732 0
205 436 728 -732 0
-436 -728 0
205 -436 732 0
-205 435 -436 -732 0
-217 437 438 445 -451 0
-437 451 0
-437 -445 0
217 -437 0
-437 -438 0
413 438 439 0
-413 -438 0
-438 -439 0
199 439 -528 0
439 -440 528 0
-199 -439 -528 0
-439 440 528 0
39 440 -705 0
440 -441 705 0
-39 -440 -705 0
-440 441 705 0
164 441 -706 0
441 442 444 706 0
-164 -441 -706 0
-441 -444 706 0
-441 -442 706 0
442 -443 707 -708 0
442 564 707 708 0
-442 -707 0
-442 -564 708 0
-442 443 -708 0
-42 443 599 0
-443 -599 0
42 -443 0
-168 444 -707 0
-444 707 0
168 -444 0
429 445 446 0
-429 -445 0
-445 -446 0
196 446 -528 0
196 446 -447 0
-196 -446 0
-446 447 528 0
-57 447 -705 0
447 -448 705 0
-447 448 705 0
57 -447 -705 0
-154 448 -706 0
448 -449 706 0
-448 449 706 0
154 -448 -706 0
-128 449 -707 0
449 -450 707 0
-449 450 707 0
128 -449 -707 0
-56 450 -708 0
450 566 708 0
56 -450 -708 0
-450 -566 708 0
-56 451 -457 0
-429 451 -457 0
451 -452 -457 0
-451 457 0
56 429 -451 452 0
452 453 528 0
-255 452 453 693 0
-452 -453 0
255 -452 -528 0
-452 -528 -693 0
453 -454 528 705 0
58 453 528 -705 0
-453 -528 0
-58 -453 -705 0
-453 454 705 0
454 455 706 0
160 454 455 0
-454 -455 0
-160 -454 -706 0
455 -456 576 708 0
-99 455 -456 -708 0
-455 456 0
99 -455 -708 0
-455 -576 708 0
456 706 707 0
-456 -706 0
-456 -707 0
205 394 457 -458 -459 0
-205 -457 0
-457 459 0
-457 458 0
-394 -457 0
393 458 -710 0
-283 393 458 0
-393 -458 0
283 -458 710 0
387 -400 401 459 -527 0
400 -459 0
-401 -459 0
-459 527 0
-387 -459 0
-216 460 -718 0
408 460 -718 0
216 408 460 461 0
-216 -460 718 0
216 -408 -460 0
-460 -461 718 0
461 527 723 0
-461 -527 0
-461 -723 0
-226 438 462 -466 0
438 462 -463 -466 0
-462 466 0
-438 -462 0
226 -462 463 0
-207 463 464 -718 0
-10 463 464 -718 0
-463 718 0
-463 -464 0
10 207 -463 0
-207 464 -465 707 0
-11 -207 464 -707 0
207 -464 0
11 -464 -707 0
-464 465 707 0
-13 465 708 0
12 465 -708 0
-12 -465 -708 0
13 -465 708 0
466 -467 -472 -475 -518 0
-466 518 0
-466 467 0
-466 475 0
-466 472 0
-381 467 -468 470 0
270 467 -468 470 0
-467 468 0
-467 -470 0
-270 381 -467 0
-260 468 -469 0
289 381 468 0
-260 381 468 0
289 468 -469 0
260 -289 -468 0
-381 -468 469 0
271 469 768 0
469 760 768 0
-469 -768 0
-271 -469 -760 0
-235 470 471 0
235 -470 0
-470 -471 0
-390 471 525 0
-471 -525 0
390 -471 0
387 472 473 -474 0
387 472 473 -769 0
-472 -473 0
-387 -472 0
-472 474 769 0
235 -469 473 0
-235 -473 0
469 -473 0
-56 474 -760 0
474 760 771 0
-474 760 -771 0
56 -474 -760 0
-391 475 -476 -515 0
471 475 -476 -515 0
-475 515 0
-475 476 0
391 -471 -475 0
262 -386 476 -477 0
290 -386 476 -477 0
-476 477 0
386 -476 0
-262 -290 -476 0
446 477 -478 -769 0
446 477 -478 514 0
-477 478 0
-446 -477 0
-477 -514 769 0
-429 478 -479 -486 -512 0
-478 512 0
429 -478 0
-478 486 0
-478 479 0
-283 388 479 485 0
388 479 -480 485 0
-479 -485 0
-388 -479 0
283 -479 480 0
480 481 -701 -710 0
480 481 528 -710 0
-480 710 0
-480 -481 0
-480 -528 701 0
481 -482 528 705 0
481 528 684 -705 0
-481 -528 0
-481 -684 -705 0
-481 482 705 0
482 668 -706 0
482 -483 706 0
-482 -668 -706 0
-482 483 706 0
483 645 -707 0
483 -484 707 0
-483 -645 -707 0
-483 484 707 0
484 588 708 0
484 620 -708 0
-484 -620 -708 0
-484 -588 708 0
281 -397 485 0
281 485 763 0
-281 -485 0
397 -485 -763 0
-392 486 -487 -491 511 0
-486 491 0
-486 -511 0
392 -486 0
-486 487 0
203 -226 487 -489 0
203 487 -488 -489 0
-203 -487 0
-487 489 0
226 -487 488 0
408 488 -718 0
488 -718 722 0
408 488 -722 -723 0
-488 718 722 0
-408 -488 -722 0
-488 718 723 0
394 489 -490 0
394 489 -722 -723 0
-394 -489 0
-489 490 723 0
-489 490 722 0
205 490 721 0
14 205 490 560 0
-205 -490 0
-14 -490 -721 0
-490 -560 -721 0
-281 491 -493 0
491 492 -493 -791 0
-491 493 0
281 -491 -492 0
281 -491 791 0
492 525 749 0
-492 -525 0
-492 -749 0
-205 493 -494 510 0
30 493 -494 510 0
-493 494 0
-493 -510 0
-30 205 -493 0
-210 474 494 -495 -505 0
-494 505 0
210 -494 0
-494 495 0
-474 -494 0
495 -496 -497 -498 -500 0
-495 500 0
-495 496 0
-495 498 0
-495 497 0
496 739 -743 -761 762 0
-496 -739 0
-496 -762 0
-496 761 0
-496 743 0
497 -713 -719 -720 -737 0
-497 737 0
-497 713 0
-497 720 0
-497 719 0
498 -499 526 -739 0
498 -499 -526 739 0
-498 499 0
-498 526 739 0
-498 -526 -739 0
499 -766 -778 779 -783 0
-499 783 0
-499 766 0
-499 778 0
-499 -779 0
500 501 502 -503 -504 0
-500 -501 0
-500 504 0
-500 503 0
-500 -502 0
501 634 -716 0
-501 -634 0
-501 716 0
502 718 719 0
-502 -718 0
-502 -719 0
387 393 503 524 -762 0
387 393 503 -524 762 0
-387 -503 0
-503 524 762 0
-393 -503 0
-503 -524 -762 0
504 -522 709 772 0
504 -522 709 -780 0
-504 522 0
-504 -709 0
-504 -772 780 0
505 -506 -788 0
-56 505 -506 0
-315 505 -506 0
-505 506 0
56 315 -505 788 0
-350 506 -507 508 509 0
-506 507 0
-506 -509 0
350 -506 0
-506 -508 0
507 -719 0
507 -718 -720 0
-507 719 720 0
-507 718 719 0
508 -527 740 0
508 -710 740 0
-508 -740 0
-508 527 710 0
509 -525 763 0
509 -749 763 0
-509 -763 0
-509 525 749 0
474 510 788 0
303 510 788 0
-510 -788 0
-303 -474 -510 0
296 314 -396 511 0
296 -314 511 -716 0
-296 -511 0
314 396 -511 0
-314 -511 716 0
-281 512 -513 0
512 -513 -772 -780 0
-512 513 0
281 -512 772 0
281 -512 780 0
-398 -458 513 0
-458 513 -740 0
458 -513 0
398 -513 740 0
56 246 514 0
56 514 -770 0
-56 -514 0
-246 -514 770 0
290 445 515 -516 0
-263 445 515 -516 0
-515 516 0
-445 -515 0
263 -290 -515 0
516 517 -769 0
-388 514 516 517 0
-516 -517 0
388 -516 769 0
-514 -516 769 0
446 517 746 0
-517 -746 0
-446 -517 0
-385 391 518 0
-385 439 518 527 0
385 -518 0
-391 -439 -518 0
-391 -518 -527 0
-214 519 521 0
519 520 521 0
-519 -521 0
214 -519 -520 0
260 -381 520 794 0
260 520 788 794 0
-260 -520 0
-520 -794 0
381 -520 -788 0
287 -301 521 718 0
-215 287 521 718 0
-521 -718 0
-287 -521 0
215 301 -521 0
1 2 0
-1 -2 0
872 0

